(declare-fun var0 () String)
(declare-fun var1 () String)
(declare-fun var2 () String)
(declare-fun var3 () String)
(declare-fun var4 () String)
(declare-fun var5 () String)
(declare-fun var6 () String)
(declare-fun var7 () String)
(declare-fun var8 () String)
(declare-fun var9 () String)
(declare-fun var10 () String)
(declare-fun var11 () String)
(declare-fun var12 () String)
(declare-fun var13 () String)
(declare-fun var14 () String)
(declare-fun var15 () String)
(declare-fun var16 () String)
(declare-fun var17 () String)
(declare-fun var18 () String)
(declare-fun var19 () String)
(declare-fun var20 () String)
(declare-fun var21 () String)
(declare-fun var22 () String)
(declare-fun var23 () String)
(declare-fun var24 () String)
(declare-fun var25 () String)
(declare-fun var26 () String)
(declare-fun var27 () String)
(declare-fun var28 () String)
(declare-fun var29 () String)
(declare-fun var30 () String)
(declare-fun var31 () String)
(declare-fun var32 () String)
(declare-fun var33 () String)
(declare-fun var34 () String)
(declare-fun var35 () String)
(declare-fun var36 () String)
(declare-fun var37 () String)
(declare-fun var38 () String)
(declare-fun var39 () String)
(declare-fun var40 () String)
(declare-fun var41 () String)
(declare-fun var42 () String)
(declare-fun var43 () String)
(declare-fun var44 () String)
(declare-fun var45 () String)
(declare-fun var46 () String)
(declare-fun var47 () String)
(declare-fun var48 () String)
(declare-fun var49 () String)
(declare-fun var50 () String)
(declare-fun var51 () String)
(declare-fun var52 () String)
(declare-fun var53 () String)
(declare-fun var54 () String)
(declare-fun var55 () String)
(declare-fun var56 () String)
(declare-fun var57 () String)
(declare-fun var58 () String)
(declare-fun var59 () String)
(declare-fun var60 () String)
(assert (= var0 (str.++ var1 var2)))
(assert (= var2 (str.++ var3 var4)))
(assert (= var4 (str.++ var5 var6)))
(assert (= var6 (str.++ var7 var8)))
(assert (= var8 (str.++ var9 var10)))
(assert (= var10 (str.++ var11 var12)))
(assert (= var12 (str.++ var13 var14)))
(assert (= var14 (str.++ var15 var16)))
(assert (= var16 (str.++ var17 var18)))
(assert (= var18 (str.++ var19 var20)))
(assert (= var20 (str.++ var21 var22)))
(assert (= var22 (str.++ var23 var24)))
(assert (= var24 (str.++ var25 var26)))
(assert (= var26 (str.++ var27 var28)))
(assert (= var28 (str.++ var29 var30)))
(assert (= var30 (str.++ var31 var32)))
(assert (= var32 (str.++ var33 var34)))
(assert (= var34 (str.++ var35 var36)))
(assert (= var36 (str.++ var37 var38)))
(assert (= var38 (str.++ var39 var40)))
(assert (= var40 (str.++ var41 var42)))
(assert (= var42 (str.++ var43 var44)))
(assert (= var44 (str.++ var45 var46)))
(assert (= var46 (str.++ var47 var48)))
(assert (= var48 (str.++ var49 var50)))
(assert (= var50 (str.++ var51 var52)))
(assert (= var52 (str.++ var53 var54)))
(assert (= var54 (str.++ var55 var56)))
(assert (= var56 (str.++ var57 var58)))
(assert (= var58 (str.++ var59 var60)))
(assert (= var0 "solution"))
(assert (= "p" (str.at var51 457)))
(assert (= "H" (str.at var33 716)))
(assert (= "k" (str.at var53 719)))
(assert (= "I" (str.at var51 386)))
(assert (= "l" (str.at var32 622)))
(assert (= "c" (str.at var34 540)))
(assert (= "Z" (str.at var24 274)))
(assert (= "+" (str.at var39 536)))
(assert (= "4" (str.at var45 652)))
(assert (= "P" (str.at var38 111)))
(assert (= "_" (str.at var25 620)))
(assert (= "{" (str.at var9 508)))
(assert (= "'" (str.at var5 915)))
(assert (= "O" (str.at var42 535)))
(assert (= "G" (str.at var5 232)))
(assert (= "S" (str.at var32 690)))
(assert (= "j" (str.at var3 233)))
(assert (= "O" (str.at var19 482)))
(assert (= "0" (str.at var7 113)))
(assert (= "9" (str.at var58 731)))
(assert (= ")" (str.at var18 293)))
(assert (= "I" (str.at var28 75)))
(assert (= "0" (str.at var39 954)))
(assert (= "+" (str.at var57 154)))
(assert (= "'" (str.at var47 731)))
(assert (= "!" (str.at var2 868)))
(assert (= "f" (str.at var44 219)))
(assert (= "5" (str.at var55 68)))
(assert (= "-" (str.at var51 783)))
(assert (= "t" (str.at var10 216)))
(assert (= "k" (str.at var25 752)))
(assert (= "v" (str.at var41 271)))
(assert (= "5" (str.at var8 113)))
(assert (= ")" (str.at var15 327)))
(assert (= "/" (str.at var38 572)))
(assert (= "5" (str.at var17 16)))
(assert (= "G" (str.at var22 409)))
(assert (= "2" (str.at var2 700)))
(assert (= "k" (str.at var4 624)))
(assert (= "^" (str.at var42 309)))
(assert (= "x" (str.at var42 631)))
(assert (= "J" (str.at var10 550)))
(assert (= "&" (str.at var19 331)))
(assert (= "c" (str.at var53 591)))
(assert (= "A" (str.at var40 952)))
(assert (= "]" (str.at var3 974)))
(assert (= "|" (str.at var11 510)))
(assert (= "(" (str.at var58 579)))
(assert (= "7" (str.at var1 35)))
(assert (= "H" (str.at var10 834)))
(assert (= "t" (str.at var3 577)))
(assert (= "p" (str.at var10 81)))
(assert (= "=" (str.at var45 98)))
(assert (= "v" (str.at var40 617)))
(assert (= "p" (str.at var3 814)))
(assert (= "W" (str.at var41 371)))
(assert (= "T" (str.at var12 85)))
(assert (= "9" (str.at var26 451)))
(assert (= "D" (str.at var6 215)))
(assert (= "L" (str.at var47 14)))
(assert (= "$" (str.at var20 909)))
(assert (= "X" (str.at var60 246)))
(assert (= "Y" (str.at var44 900)))
(assert (= "W" (str.at var15 456)))
(assert (= "1" (str.at var14 432)))
(assert (= "7" (str.at var11 560)))
(assert (= "L" (str.at var8 756)))
(assert (= "/" (str.at var7 170)))
(assert (= "h" (str.at var27 215)))
(assert (= "1" (str.at var8 94)))
(assert (= ";" (str.at var10 199)))
(assert (= "'" (str.at var6 323)))
(assert (= "|" (str.at var3 212)))
(assert (= ">" (str.at var58 72)))
(assert (= "f" (str.at var53 307)))
(assert (= "t" (str.at var44 734)))
(assert (= "Q" (str.at var3 153)))
(assert (= "W" (str.at var18 903)))
(assert (= "W" (str.at var16 705)))
(assert (= "a" (str.at var32 729)))
(assert (= "t" (str.at var26 649)))
(assert (= "\\" (str.at var6 424)))
(assert (= "/" (str.at var50 164)))
(assert (= "Y" (str.at var52 893)))
(assert (= "(" (str.at var49 307)))
(assert (= "3" (str.at var54 986)))
(assert (= ")" (str.at var42 97)))
(assert (= ")" (str.at var50 186)))
(assert (= "c" (str.at var30 281)))
(assert (= "!" (str.at var58 84)))
(assert (= "/" (str.at var24 306)))
(assert (= "q" (str.at var28 643)))
(assert (= "d" (str.at var17 962)))
(assert (= "%" (str.at var37 842)))
(assert (= "0" (str.at var35 111)))
(assert (= "V" (str.at var6 645)))
(assert (= "R" (str.at var31 758)))
(assert (= "=" (str.at var7 880)))
(assert (= "4" (str.at var33 899)))
(assert (= "#" (str.at var20 442)))
(assert (= "T" (str.at var24 640)))
(assert (= "d" (str.at var41 289)))
(assert (= "X" (str.at var46 871)))
(assert (= "=" (str.at var19 174)))
(assert (= "7" (str.at var12 663)))
(assert (= "D" (str.at var1 798)))
(assert (= ";" (str.at var18 380)))
(assert (= "{" (str.at var32 6)))
(assert (= "N" (str.at var60 250)))
(assert (= "`" (str.at var47 136)))
(assert (= "L" (str.at var41 770)))
(assert (= "_" (str.at var14 655)))
(assert (= "5" (str.at var42 94)))
(assert (= "{" (str.at var13 171)))
(assert (= "/" (str.at var33 416)))
(assert (= "V" (str.at var31 951)))
(assert (= "B" (str.at var42 269)))
(assert (= "V" (str.at var32 902)))
(assert (= "1" (str.at var51 810)))
(assert (= "b" (str.at var51 333)))
(assert (= "u" (str.at var15 976)))
(assert (= "." (str.at var16 74)))
(assert (= """" (str.at var0 855)))
(assert (= "7" (str.at var20 31)))
(assert (= "B" (str.at var39 947)))
(assert (= "(" (str.at var53 198)))
(assert (= "j" (str.at var39 832)))
(assert (= "H" (str.at var34 954)))
(assert (= ";" (str.at var60 683)))
(assert (= "9" (str.at var1 739)))
(assert (= "," (str.at var25 332)))
(assert (= "H" (str.at var12 389)))
(assert (= "K" (str.at var42 804)))
(assert (= "J" (str.at var49 845)))
(assert (= "$" (str.at var15 844)))
(assert (= "p" (str.at var42 182)))
(assert (= "_" (str.at var4 772)))
(assert (= "}" (str.at var24 911)))
(assert (= "," (str.at var13 485)))
(assert (= "Z" (str.at var46 554)))
(assert (= "4" (str.at var47 781)))
(assert (= "Q" (str.at var43 500)))
(assert (= "2" (str.at var16 235)))
(assert (= "J" (str.at var36 102)))
(assert (= "H" (str.at var24 553)))
(assert (= "=" (str.at var47 469)))
(assert (= "g" (str.at var38 999)))
(assert (= "g" (str.at var15 689)))
(assert (= "P" (str.at var8 850)))
(assert (= "`" (str.at var36 910)))
(assert (= "H" (str.at var12 966)))
(assert (= "-" (str.at var39 928)))
(assert (= "?" (str.at var22 371)))
(assert (= "B" (str.at var44 619)))
(assert (= "W" (str.at var57 107)))
(assert (= "w" (str.at var55 894)))
(assert (= "M" (str.at var28 231)))
(assert (= ">" (str.at var18 919)))
(assert (= "7" (str.at var0 263)))
(assert (= "+" (str.at var37 413)))
(assert (= "o" (str.at var23 213)))
(assert (= "o" (str.at var35 725)))
(assert (= "B" (str.at var59 359)))
(assert (= "j" (str.at var4 256)))
(assert (= "!" (str.at var16 945)))
(assert (= "m" (str.at var45 227)))
(assert (= "t" (str.at var11 132)))
(assert (= "p" (str.at var38 745)))
(assert (= "!" (str.at var52 247)))
(assert (= "=" (str.at var34 865)))
(assert (= "_" (str.at var0 212)))
(assert (= "c" (str.at var26 711)))
(assert (= "{" (str.at var36 831)))
(assert (= "w" (str.at var30 783)))
(assert (= "H" (str.at var9 444)))
(assert (= "9" (str.at var45 954)))
(assert (= "A" (str.at var10 706)))
(assert (= "[" (str.at var20 372)))
(assert (= "I" (str.at var54 654)))
(assert (= "3" (str.at var18 584)))
(assert (= "&" (str.at var58 110)))
(assert (= "*" (str.at var55 375)))
(assert (= "#" (str.at var37 312)))
(assert (= "W" (str.at var26 310)))
(assert (= "-" (str.at var27 426)))
(assert (= "X" (str.at var31 573)))
(assert (= "U" (str.at var56 310)))
(assert (= "4" (str.at var60 202)))
(assert (= "_" (str.at var13 546)))
(assert (= "s" (str.at var57 152)))
(assert (= "#" (str.at var18 339)))
(assert (= "q" (str.at var29 382)))
(assert (= "X" (str.at var47 61)))
(assert (= "U" (str.at var12 715)))
(assert (= "&" (str.at var55 948)))
(assert (= "F" (str.at var30 774)))
(assert (= "d" (str.at var5 665)))
(assert (= "X" (str.at var28 632)))
(assert (= "z" (str.at var34 882)))
(assert (= "d" (str.at var27 864)))
(assert (= "4" (str.at var58 378)))
(assert (= "<" (str.at var50 62)))
(assert (= "}" (str.at var6 289)))
(assert (= ";" (str.at var35 7)))
(assert (= "4" (str.at var2 290)))
(assert (= "v" (str.at var29 73)))
(assert (= "+" (str.at var15 363)))
(assert (= "P" (str.at var8 514)))
(assert (= "a" (str.at var14 293)))
(assert (= "N" (str.at var5 471)))
(assert (= "(" (str.at var54 201)))
(assert (= "6" (str.at var9 200)))
(assert (= """" (str.at var0 704)))
(assert (= "q" (str.at var27 83)))
(assert (= "U" (str.at var19 12)))
(assert (= "-" (str.at var35 671)))
(assert (= "Y" (str.at var20 149)))
(assert (= "6" (str.at var35 660)))
(assert (= "}" (str.at var20 61)))
(assert (= "@" (str.at var36 251)))
(assert (= "Z" (str.at var58 345)))
(assert (= "W" (str.at var0 808)))
(assert (= "a" (str.at var8 134)))
(assert (= "B" (str.at var34 368)))
(assert (= "-" (str.at var37 214)))
(assert (= "X" (str.at var38 43)))
(assert (= "%" (str.at var35 320)))
(assert (= "S" (str.at var46 415)))
(assert (= "i" (str.at var13 696)))
(assert (= "%" (str.at var21 984)))
(assert (= ";" (str.at var56 582)))
(assert (= "V" (str.at var38 890)))
(assert (= "[" (str.at var30 164)))
(assert (= "Z" (str.at var24 178)))
(assert (= "%" (str.at var6 576)))
(assert (= "|" (str.at var47 597)))
(assert (= """" (str.at var13 3)))
(assert (= "?" (str.at var22 805)))
(assert (= "~" (str.at var4 545)))
(assert (= "P" (str.at var57 82)))
(assert (= "X" (str.at var56 862)))
(assert (= "O" (str.at var35 153)))
(assert (= "P" (str.at var51 206)))
(assert (= "D" (str.at var60 653)))
(assert (= "M" (str.at var0 877)))
(assert (= "B" (str.at var22 81)))
(assert (= "&" (str.at var6 903)))
(assert (= "F" (str.at var20 976)))
(assert (= "H" (str.at var53 985)))
(assert (= "g" (str.at var56 281)))
(assert (= "t" (str.at var0 798)))
(assert (= "n" (str.at var30 833)))
(assert (= "$" (str.at var40 719)))
(assert (= "Y" (str.at var41 234)))
(assert (= "e" (str.at var33 321)))
(assert (= "a" (str.at var14 86)))
(assert (= "7" (str.at var5 154)))
(assert (= "R" (str.at var59 678)))
(assert (= "x" (str.at var43 967)))
(assert (= "'" (str.at var16 941)))
(assert (= "r" (str.at var33 489)))
(assert (= "=" (str.at var36 185)))
(assert (= "N" (str.at var50 178)))
(assert (= "t" (str.at var31 727)))
(assert (= "}" (str.at var60 563)))
(assert (= "?" (str.at var42 852)))
(assert (= "~" (str.at var59 97)))
(assert (= "B" (str.at var48 439)))
(assert (= "|" (str.at var31 685)))
(assert (= "$" (str.at var10 299)))
(assert (= "v" (str.at var7 320)))
(assert (= "F" (str.at var21 190)))
(assert (= "V" (str.at var60 974)))
(assert (= "(" (str.at var10 972)))
(assert (= "_" (str.at var34 384)))
(assert (= "d" (str.at var1 540)))
(assert (= "{" (str.at var38 275)))
(assert (= "E" (str.at var32 79)))
(assert (= "A" (str.at var44 489)))
(assert (= "Y" (str.at var46 814)))
(assert (= "w" (str.at var15 973)))
(assert (= "m" (str.at var45 54)))
(assert (= "@" (str.at var40 960)))
(assert (= "J" (str.at var2 54)))
(assert (= "W" (str.at var3 683)))
(assert (= "j" (str.at var11 960)))
(assert (= "I" (str.at var48 614)))
(assert (= "!" (str.at var56 313)))
(assert (= "4" (str.at var49 81)))
(assert (= "]" (str.at var11 521)))
(assert (= "h" (str.at var23 318)))
(assert (= "]" (str.at var42 48)))
(assert (= "W" (str.at var31 741)))
(assert (= "%" (str.at var36 217)))
(assert (= "L" (str.at var51 258)))
(assert (= "C" (str.at var43 794)))
(assert (= "d" (str.at var33 237)))
(assert (= "D" (str.at var13 83)))
(assert (= "=" (str.at var22 159)))
(assert (= "O" (str.at var37 194)))
(assert (= "O" (str.at var51 627)))
(assert (= "H" (str.at var54 24)))
(assert (= "\\" (str.at var24 449)))
(assert (= "E" (str.at var44 151)))
(assert (= "C" (str.at var15 51)))
(assert (= "Y" (str.at var34 757)))
(assert (= "F" (str.at var0 463)))
(assert (= "t" (str.at var13 886)))
(assert (= "N" (str.at var38 404)))
(assert (= "%" (str.at var3 185)))
(assert (= "0" (str.at var3 344)))
(assert (= "=" (str.at var38 528)))
(assert (= "P" (str.at var51 365)))
(assert (= "[" (str.at var60 19)))
(assert (= "L" (str.at var26 872)))
(assert (= "q" (str.at var46 62)))
(assert (= "P" (str.at var4 446)))
(assert (= "0" (str.at var30 142)))
(assert (= "-" (str.at var20 544)))
(assert (= "T" (str.at var34 546)))
(assert (= "6" (str.at var5 482)))
(assert (= "#" (str.at var56 311)))
(assert (= ">" (str.at var58 920)))
(assert (= "Q" (str.at var19 661)))
(assert (= "@" (str.at var8 302)))
(assert (= "+" (str.at var45 288)))
(assert (= "Z" (str.at var36 772)))
(assert (= "J" (str.at var39 974)))
(assert (= ")" (str.at var25 628)))
(assert (= "Z" (str.at var54 644)))
(assert (= "_" (str.at var57 381)))
(assert (= "j" (str.at var23 652)))
(assert (= "," (str.at var16 859)))
(assert (= "w" (str.at var38 920)))
(assert (= "a" (str.at var58 30)))
(assert (= "A" (str.at var31 524)))
(assert (= "'" (str.at var27 679)))
(assert (= "n" (str.at var51 828)))
(assert (= "<" (str.at var36 843)))
(assert (= "y" (str.at var39 373)))
(assert (= "@" (str.at var29 381)))
(assert (= "0" (str.at var36 391)))
(assert (= "#" (str.at var45 743)))
(assert (= "2" (str.at var30 433)))
(assert (= "R" (str.at var54 733)))
(assert (= "%" (str.at var35 227)))
(assert (= "K" (str.at var43 910)))
(assert (= "U" (str.at var44 110)))
(assert (= "O" (str.at var27 334)))
(assert (= "e" (str.at var5 304)))
(assert (= "<" (str.at var25 753)))
(assert (= "`" (str.at var20 527)))
(assert (= "_" (str.at var23 748)))
(assert (= "$" (str.at var39 787)))
(assert (= "'" (str.at var9 206)))
(assert (= "v" (str.at var12 20)))
(assert (= "'" (str.at var2 127)))
(assert (= "B" (str.at var53 803)))
(assert (= "7" (str.at var24 596)))
(assert (= "B" (str.at var41 436)))
(assert (= "r" (str.at var5 638)))
(assert (= "4" (str.at var17 504)))
(assert (= "V" (str.at var4 514)))
(assert (= "e" (str.at var8 218)))
(assert (= "l" (str.at var47 842)))
(assert (= "b" (str.at var0 115)))
(assert (= "L" (str.at var57 490)))
(assert (= "!" (str.at var40 770)))
(assert (= "U" (str.at var55 262)))
(assert (= "T" (str.at var1 417)))
(assert (= "0" (str.at var24 832)))
(assert (= "8" (str.at var22 407)))
(assert (= "w" (str.at var40 685)))
(assert (= ")" (str.at var19 374)))
(assert (= "S" (str.at var3 182)))
(assert (= "C" (str.at var17 175)))
(assert (= "F" (str.at var53 559)))
(assert (= "_" (str.at var16 915)))
(assert (= "+" (str.at var3 754)))
(assert (= "i" (str.at var38 804)))
(assert (= "A" (str.at var48 344)))
(assert (= """" (str.at var25 693)))
(assert (= "'" (str.at var18 773)))
(assert (= "*" (str.at var54 347)))
(assert (= "W" (str.at var15 511)))
(assert (= "P" (str.at var6 49)))
(assert (= "o" (str.at var22 690)))
(assert (= "U" (str.at var44 144)))
(assert (= "~" (str.at var14 701)))
(assert (= "/" (str.at var39 10)))
(assert (= "K" (str.at var40 20)))
(assert (= ")" (str.at var35 157)))
(assert (= "u" (str.at var43 216)))
(assert (= "p" (str.at var39 263)))
(assert (= "M" (str.at var44 420)))
(assert (= "8" (str.at var59 224)))
(assert (= "o" (str.at var39 129)))
(assert (= "+" (str.at var32 270)))
(assert (= "&" (str.at var23 530)))
(assert (= "U" (str.at var29 253)))
(assert (= "y" (str.at var19 196)))
(assert (= "U" (str.at var46 45)))
(assert (= "8" (str.at var11 60)))
(assert (= "'" (str.at var23 539)))
(assert (= "w" (str.at var21 609)))
(assert (= "%" (str.at var24 696)))
(assert (= "E" (str.at var27 486)))
(assert (= "A" (str.at var4 723)))
(assert (= "E" (str.at var39 906)))
(assert (= "C" (str.at var47 663)))
(assert (= "Y" (str.at var12 481)))
(assert (= "#" (str.at var7 511)))
(assert (= "Y" (str.at var56 412)))
(assert (= ";" (str.at var32 230)))
(assert (= "4" (str.at var59 533)))
(assert (= "c" (str.at var56 608)))
(assert (= "S" (str.at var52 850)))
(assert (= "W" (str.at var54 67)))
(assert (= "r" (str.at var35 433)))
(assert (= "c" (str.at var35 587)))
(assert (= "W" (str.at var35 246)))
(assert (= "]" (str.at var30 938)))
(assert (= "z" (str.at var39 324)))
(assert (= "x" (str.at var27 58)))
(assert (= "t" (str.at var58 299)))
(assert (= "u" (str.at var34 157)))
(assert (= "l" (str.at var23 147)))
(assert (= "(" (str.at var25 269)))
(assert (= "S" (str.at var10 268)))
(assert (= ")" (str.at var2 397)))
(assert (= "2" (str.at var40 294)))
(assert (= "Y" (str.at var15 803)))
(assert (= "k" (str.at var60 702)))
(assert (= "U" (str.at var50 877)))
(assert (= "'" (str.at var41 671)))
(assert (= "\\" (str.at var16 105)))
(assert (= "z" (str.at var55 293)))
(assert (= "Q" (str.at var30 953)))
(assert (= "l" (str.at var47 212)))
(assert (= "m" (str.at var46 829)))
(assert (= ";" (str.at var30 99)))
(assert (= "o" (str.at var5 905)))
(assert (= "j" (str.at var40 505)))
(assert (= "K" (str.at var36 601)))
(assert (= "a" (str.at var3 605)))
(assert (= "c" (str.at var21 523)))
(assert (= "Y" (str.at var2 67)))
(assert (= "x" (str.at var53 798)))
(assert (= "m" (str.at var47 442)))
(assert (= "Y" (str.at var26 408)))
(assert (= "a" (str.at var37 919)))
(assert (= "8" (str.at var58 761)))
(assert (= "+" (str.at var5 375)))
(assert (= "S" (str.at var9 66)))
(assert (= "S" (str.at var1 621)))
(assert (= "#" (str.at var40 96)))
(assert (= "}" (str.at var25 314)))
(assert (= "%" (str.at var6 501)))
(assert (= "s" (str.at var21 762)))
(assert (= "W" (str.at var17 719)))
(assert (= "7" (str.at var12 521)))
(assert (= "M" (str.at var3 759)))
(assert (= "e" (str.at var11 619)))
(assert (= "}" (str.at var27 553)))
(assert (= "6" (str.at var38 701)))
(assert (= "," (str.at var46 379)))
(assert (= "+" (str.at var53 283)))
(assert (= "&" (str.at var0 670)))
(assert (= "," (str.at var54 504)))
(assert (= "Z" (str.at var28 959)))
(assert (= "L" (str.at var32 252)))
(assert (= "f" (str.at var2 932)))
(assert (= "n" (str.at var57 354)))
(assert (= "J" (str.at var54 974)))
(assert (= "." (str.at var24 785)))
(assert (= "P" (str.at var45 74)))
(assert (= "S" (str.at var55 810)))
(assert (= "y" (str.at var56 772)))
(assert (= "~" (str.at var56 411)))
(assert (= "[" (str.at var11 111)))
(assert (= "+" (str.at var56 767)))
(assert (= "H" (str.at var22 749)))
(assert (= "k" (str.at var56 486)))
(assert (= "*" (str.at var36 380)))
(assert (= "q" (str.at var16 790)))
(assert (= "|" (str.at var16 296)))
(assert (= "R" (str.at var40 813)))
(assert (= "A" (str.at var1 382)))
(assert (= "6" (str.at var45 884)))
(assert (= "o" (str.at var11 88)))
(assert (= "*" (str.at var13 394)))
(assert (= "v" (str.at var5 76)))
(assert (= "m" (str.at var36 888)))
(assert (= "*" (str.at var24 625)))
(assert (= "u" (str.at var42 195)))
(assert (= "<" (str.at var58 655)))
(assert (= "m" (str.at var39 8)))
(assert (= "-" (str.at var26 282)))
(assert (= "." (str.at var9 115)))
(assert (= """" (str.at var41 876)))
(assert (= "_" (str.at var48 781)))
(assert (= "5" (str.at var42 158)))
(assert (= "n" (str.at var48 826)))
(assert (= "X" (str.at var0 508)))
(assert (= "[" (str.at var27 97)))
(assert (= "U" (str.at var42 155)))
(assert (= "J" (str.at var26 467)))
(assert (= "9" (str.at var12 62)))
(assert (= "N" (str.at var42 151)))
(assert (= "G" (str.at var10 962)))
(assert (= "q" (str.at var35 865)))
(assert (= "f" (str.at var9 195)))
(assert (= "=" (str.at var35 680)))
(assert (= "." (str.at var10 817)))
(assert (= "F" (str.at var59 942)))
(assert (= "U" (str.at var52 914)))
(assert (= "Q" (str.at var53 381)))
(assert (= "+" (str.at var47 983)))
(assert (= "%" (str.at var59 702)))
(assert (= "," (str.at var49 968)))
(assert (= "+" (str.at var59 107)))
(assert (= "u" (str.at var21 581)))
(assert (= "(" (str.at var19 101)))
(assert (= "c" (str.at var37 83)))
(assert (= "J" (str.at var53 965)))
(assert (= "Z" (str.at var0 574)))
(assert (= "q" (str.at var12 746)))
(assert (= ">" (str.at var56 63)))
(assert (= ":" (str.at var19 106)))
(assert (= "7" (str.at var58 511)))
(assert (= "%" (str.at var2 874)))
(assert (= "7" (str.at var23 498)))
(assert (= "$" (str.at var59 189)))
(assert (= "T" (str.at var35 922)))
(assert (= "9" (str.at var51 140)))
(assert (= "%" (str.at var4 791)))
(assert (= "%" (str.at var0 594)))
(assert (= "p" (str.at var52 701)))
(assert (= "@" (str.at var16 597)))
(assert (= "r" (str.at var39 972)))
(assert (= "]" (str.at var30 755)))
(assert (= "v" (str.at var60 651)))
(assert (= "O" (str.at var10 207)))
(assert (= "[" (str.at var47 139)))
(assert (= """" (str.at var43 3)))
(assert (= "s" (str.at var17 142)))
(assert (= "(" (str.at var37 825)))
(assert (= "H" (str.at var49 292)))
(assert (= "{" (str.at var36 882)))
(assert (= "4" (str.at var55 429)))
(assert (= "\\" (str.at var25 705)))
(assert (= ":" (str.at var51 522)))
(assert (= "p" (str.at var39 117)))
(assert (= "D" (str.at var13 526)))
(assert (= "!" (str.at var5 569)))
(assert (= "f" (str.at var26 590)))
(assert (= "j" (str.at var19 910)))
(assert (= "'" (str.at var14 827)))
(assert (= "g" (str.at var30 466)))
(assert (= "o" (str.at var9 643)))
(assert (= "U" (str.at var17 114)))
(assert (= "9" (str.at var8 749)))
(assert (= "C" (str.at var25 181)))
(assert (= ":" (str.at var25 287)))
(assert (= "W" (str.at var13 941)))
(assert (= "2" (str.at var40 944)))
(assert (= "z" (str.at var51 76)))
(assert (= "H" (str.at var54 285)))
(assert (= "\\" (str.at var18 172)))
(assert (= "+" (str.at var22 447)))
(assert (= "j" (str.at var5 66)))
(assert (= "S" (str.at var7 687)))
(assert (= "<" (str.at var44 668)))
(assert (= "j" (str.at var0 917)))
(assert (= "k" (str.at var38 963)))
(assert (= "&" (str.at var43 650)))
(assert (= "&" (str.at var16 385)))
(assert (= "." (str.at var11 761)))
(assert (= "g" (str.at var2 66)))
(assert (= "p" (str.at var45 550)))
(assert (= "f" (str.at var60 769)))
(assert (= "V" (str.at var12 197)))
(assert (= "p" (str.at var2 489)))
(assert (= "3" (str.at var15 397)))
(assert (= "N" (str.at var4 477)))
(assert (= "\\" (str.at var45 579)))
(assert (= "&" (str.at var16 413)))
(assert (= "D" (str.at var56 99)))
(assert (= ":" (str.at var53 854)))
(assert (= "T" (str.at var17 865)))
(assert (= "^" (str.at var40 539)))
(assert (= "M" (str.at var18 92)))
(assert (= "H" (str.at var59 416)))
(assert (= "i" (str.at var24 132)))
(assert (= "|" (str.at var40 906)))
(assert (= "[" (str.at var16 550)))
(assert (= "_" (str.at var20 614)))
(assert (= "v" (str.at var23 367)))
(assert (= "+" (str.at var4 382)))
(assert (= "D" (str.at var27 152)))
(assert (= "[" (str.at var11 74)))
(assert (= "n" (str.at var35 245)))
(assert (= "y" (str.at var45 602)))
(assert (= "l" (str.at var60 247)))
(assert (= "T" (str.at var47 513)))
(assert (= "f" (str.at var2 294)))
(assert (= ">" (str.at var3 685)))
(assert (= "O" (str.at var29 232)))
(assert (= "!" (str.at var50 778)))
(assert (= "r" (str.at var7 879)))
(assert (= "n" (str.at var7 198)))
(assert (= "}" (str.at var21 699)))
(assert (= "." (str.at var17 511)))
(assert (= "k" (str.at var55 391)))
(assert (= """" (str.at var11 506)))
(assert (= "D" (str.at var16 328)))
(assert (= "#" (str.at var14 918)))
(assert (= "W" (str.at var56 276)))
(assert (= "X" (str.at var13 550)))
(assert (= "b" (str.at var32 526)))
(assert (= "i" (str.at var35 851)))
(assert (= "y" (str.at var15 963)))
(assert (= "[" (str.at var57 620)))
(assert (= "u" (str.at var9 775)))
(assert (= "<" (str.at var30 607)))
(assert (= "C" (str.at var36 26)))
(assert (= ":" (str.at var45 263)))
(assert (= "9" (str.at var51 821)))
(assert (= "N" (str.at var36 314)))
(assert (= "s" (str.at var39 714)))
(assert (= "Y" (str.at var52 705)))
(assert (= "S" (str.at var6 866)))
(assert (= "x" (str.at var27 424)))
(assert (= "g" (str.at var21 560)))
(assert (= "d" (str.at var38 313)))
(assert (= "h" (str.at var23 327)))
(assert (= "i" (str.at var5 106)))
(assert (= "R" (str.at var18 269)))
(assert (= "|" (str.at var54 79)))
(assert (= "!" (str.at var14 406)))
(assert (= ">" (str.at var40 609)))
(check-sat)